NAME: tsp40_23
COMMENT: 40-tsp problem (Padberg/Rinaldi)
TYPE: TSP
DIMENSION: 40
EDGE_WEIGHT_TYPE : EUC_2D
NODE_COORD_SECTION
1 31 2
2 5 35
3 6 1
4 18 9
5 35 16
6 9 3
7 21 9
8 27 2
9 12 11
10 16 27
11 35 16
12 9 27
13 18 22
14 37 5
15 2 35
16 34 23
17 28 12
18 18 15
19 10 5
20 28 34
21 26 0
22 10 24
23 25 38
24 8 15
25 34 37
26 9 21
27 29 11
28 5 12
29 27 11
30 0 9
31 34 28
32 2 5
33 21 39
34 8 35
35 25 35
36 33 5
37 11 24
38 13 5
39 30 26
40 28 36
